p tw 24 36
1 6
1 20
1 24
2 16
2 18
2 22
3 7
3 17
3 18
4 8
4 14
4 16
5 22
5 23
5 24
6 12
6 14
7 11
7 15
8 13
8 23
9 10
9 12
9 14
10 11
10 21
11 12
13 19
13 21
15 19
15 20
16 20
17 19
17 21
18 23
22 24
